proyfinal/src/viki/013/experimentInOfficeAgust.take6.output/6aa1e6ef-90f0-4b55-abc3-9a63cd996e82.als.dat
{'cnf.clauses': '118081',
 'cnf.totvars': '69608',
 'conflict literals': '62',
 'conflicts': '20',
 'decisions': '6636',
 'memused.mb': '15.29',
 'outcome': 'UNSAT',
 'propagations': '30893',
 'restarts': '1',
 'solver.msecs': 31,
 'task.msecs': 71}
