proyfinal/src/viki/013/experimentInOfficeAgust.take6.output/6aa1e6ef-90f0-4b55-abc3-9a63cd996e82.als.out
Reading from standard input... Use '--help' for help.
============================[ Problem Statistics ]=============================
|                                                                             |
|  Number of variables:         69608                                         |
|  Number of clauses:          118081                                         |
|  Parse time:                   0.03 s                                       |
|                                                                             |
============================[ Search Statistics ]==============================
| Conflicts |          ORIGINAL         |          LEARNT          | Progress |
|           |    Vars  Clauses Literals |    Limit  Clauses Lit/Cl |          |
===============================================================================
===============================================================================
restarts              : 1
conflicts             : 20             (636 /sec)
decisions             : 6636           (0.00 % random) (210941 /sec)
propagations          : 30893          (982008 /sec)
conflict literals     : 62             (0.00 % deleted)
Memory used           : 15.29 MB
CPU time              : 0.031459 s

UNSATISFIABLE
